1000
[151,152,153,154,155,156,157,158,159,160,161,162,163,164,165,166,167,168,169,170,171,172,173,174,175,176,177,178,179,180,181,182,183,184,185,186,187,188,189,190,191,192,193,194,195,196,198,199,200]
[2,1,2,1,2,1,5,1,1,5,2,1,4,1,1,2,1,1,3,3,1,2,2,2,2,1,3,2,3,5,1,1,3,8,4,2,4,1,3,2,3,2,5,2,4,2,6,2,2]
